p cnf 479 2026
15 46 39 -37 25 0
44 -3 21 -25 9 0
21 -32 -48 35 23 0
45 4 9 -42 -47 0
32 -3 -19 9 -33 0
-30 1 -25 40 2 0
11 43 16 -28 31 0
47 8 48 27 -34 0
-8 19 -31 -9 4 0
-44 6 33 45 -19 0
48 31 -6 25 27 0
26 -47 -37 -30 9 0
35 40 -5 50 36 0
-26 3 2 24 -15 0
-16 -25 -21 -4 19 0
7 -31 2 -26 32 0
-22 -28 13 -5 -12 0
-23 49 -39 36 22 0
-26 16 19 11 -21 0
-42 -26 -49 50 7 0
-7 1 50 49 -25 0
15 -50 -46 -22 16 0
-32 13 -23 48 -35 0
-8 -34 -38 3 11 0
-34 27 24 26 -17 0
-12 29 19 -11 -36 0
15 -36 -33 -18 -13 0
-40 48 -50 1 36 0
25 -39 -16 -44 -26 0
-32 -8 -43 -17 -24 0
-32 5 -4 30 44 0
17 14 23 22 5 0
33 -10 -12 20 -14 0
-6 3 26 37 -35 0
-30 -43 -1 5 23 0
4 14 -8 11 34 0
4 39 25 2 13 0
-14 -8 48 42 18 0
39 -26 -47 -14 -33 0
-42 -21 -15 -13 38 0
-18 50 48 -20 31 0
47 -49 -26 17 -31 0
23 -2 -26 -41 -22 0
18 46 -42 -27 22 0
-22 16 -42 36 -41 0
-7 46 -31 32 27 0
47 14 11 31 40 0
-30 -15 32 49 -34 0
-7 20 -18 38 2 0
-33 11 49 -15 41 0
-4 38 -27 -36 -41 0
23 -25 26 -19 -50 0
-37 8 -18 -36 41 0
-40 28 27 20 -21 0
-3 -49 -32 -1 -21 0
25 30 29 19 10 0
-30 -11 1 -10 32 0
-17 41 -8 38 29 0
-40 10 -30 -9 -31 0
23 -34 -31 29 -11 0
47 -38 -12 9 -36 0
13 22 -36 46 2 0
-16 14 -42 44 -48 0
-4 -19 48 6 -23 0
27 23 35 -43 36 0
31 -11 -46 26 36 0
50 -21 32 20 -4 0
1 14 -21 42 -34 0
-9 -5 -4 49 -16 0
-8 -16 25 40 -38 0
-45 44 -12 -31 -13 0
-8 33 41 36 50 0
46 -19 29 -39 34 0
8 6 -28 -14 -15 0
-19 31 15 37 21 0
-8 28 -16 41 43 0
16 -22 -44 30 5 0
-14 -36 28 49 11 0
-8 39 -36 -48 -44 0
-3 -42 -45 20 39 0
-50 9 -3 20 14 0
4 -26 3 -12 -16 0
10 43 17 46 18 0
6 -8 40 -12 -35 0
-4 7 18 19 21 0
-40 6 -29 -3 13 0
15 12 40 6 -7 0
11 -34 24 31 41 0
-41 -36 27 -43 -24 0
43 34 47 17 4 0
-2 12 1 -26 8 0
-21 37 47 30 -23 0
27 -37 42 -24 6 0
-10 -42 40 7 -21 0
-39 -12 34 -27 -14 0
34 21 -19 42 23 0
26 41 38 -24 -30 0
45 42 -1 29 -41 0
50 19 -38 21 8 0
14 18 13 -27 -20 0
49 -28 -4 -40 1 0
3 30 25 -6 49 0
4 3 47 9 30 0
-27 -44 38 36 5 0
9 1 -31 -32 23 0
-9 18 -20 -38 22 0
16 34 49 24 -20 0
-24 20 -34 48 -40 0
25 -50 49 4 -42 0
37 -18 36 4 15 0
-19 -15 -37 20 -11 0
3 20 -2 -4 5 0
29 -21 30 5 -26 0
9 -46 3 -18 -45 0
44 23 45 10 25 0
30 23 -26 17 10 0
-33 11 -8 -34 -44 0
20 36 -29 30 -8 0
5 35 -19 -7 42 0
-23 47 -28 16 40 0
24 48 -44 -46 -50 0
-44 -35 48 -39 -8 0
4 22 42 -3 -40 0
-49 44 -33 10 -36 0
13 1 39 7 24 0
33 35 -7 -39 18 0
20 17 -35 1 30 0
49 39 -4 14 31 0
44 48 43 12 38 0
-22 48 -25 -18 -12 0
29 -39 -19 -12 40 0
21 23 -22 -38 -10 0
-6 26 -48 47 -21 0
-11 -24 49 2 -31 0
-18 26 -43 -35 42 0
-4 -22 -45 37 -40 0
-3 13 -31 -34 -30 0
-13 -3 -50 -5 -48 0
-35 -46 12 -8 -47 0
-10 31 2 43 -48 0
36 43 16 -34 7 0
49 40 45 -1 -17 0
14 -48 -15 -19 -2 0
3 35 -47 -30 -48 0
-38 26 -24 9 -43 0
-48 8 49 -12 -31 0
-44 -32 -39 22 -45 0
18 38 -34 2 36 0
-28 -9 3 -47 45 0
46 12 39 43 17 0
26 -45 11 1 -14 0
-8 15 49 -34 45 0
-2 -5 -8 -7 43 0
-1 26 -25 28 31 0
26 -29 -12 30 -35 0
-45 -26 -24 -31 -1 0
-21 9 47 13 30 0
-35 -38 22 -16 24 0
-7 -36 -12 -9 30 0
-28 -1 -4 -15 -33 0
-25 -26 32 27 38 0
47 -16 3 41 -26 0
11 -20 -25 -28 18 0
48 17 -35 -3 1 0
10 -34 -25 47 -27 0
44 7 20 -45 32 0
48 -41 -50 24 -45 0
49 47 20 -8 24 0
25 5 -1 30 -19 0
48 15 45 8 -47 0
30 -6 8 3 -5 0
36 37 -34 -2 -41 0
24 43 -8 35 -48 0
-8 28 47 -6 -40 0
40 22 -6 -37 -33 0
45 -2 -37 9 35 0
11 23 41 42 27 0
-33 22 16 -37 26 0
9 20 -11 37 41 0
39 -10 50 17 -22 0
-1 39 -49 -35 -23 0
-7 -37 -36 -27 -19 0
-15 41 -35 -45 -1 0
-27 -28 2 -49 -31 0
-49 -2 -6 -28 -47 0
5 9 -22 -41 -46 0
-24 -25 -29 -22 2 0
-20 47 -32 22 -34 0
34 30 -6 -41 13 0
28 10 30 -22 13 0
-10 44 43 5 -41 0
-17 -42 -29 48 -8 0
33 -28 -10 43 41 0
5 -15 -38 10 47 0
-46 -11 -14 12 -20 0
36 -9 21 -39 13 0
12 -29 26 30 -23 0
-21 4 -20 47 -30 0
-28 -46 39 43 -27 0
40 1 44 -43 22 0
-5 -11 24 40 10 0
-34 39 17 48 23 0
-1 -23 -39 -31 -3 0
-12 -22 -8 27 49 0
-17 -27 -29 -1 41 0
-29 -50 -12 -2 -8 0
-22 30 -49 50 45 0
-50 -16 29 -36 1 0
9 -39 18 47 8 0
-14 -6 -45 -40 -41 0
7 -50 -11 38 -37 0
-31 30 11 35 21 0
-31 -22 -17 29 -35 0
34 -38 4 -22 12 0
-19 -29 -44 4 43 0
34 -14 46 27 11 0
38 7 -2 46 -16 0
49 -17 -42 7 16 0
-2 47 -22 27 20 0
50 24 47 -9 23 0
32 -19 22 -43 27 0
-19 13 -44 -46 15 0
-3 13 28 37 21 0
22 25 30 -32 -2 0
47 7 -2 -25 -18 0
29 -49 -30 39 -40 0
-3 -29 22 -42 25 0
37 5 10 18 14 0
-19 43 3 2 -44 0
-11 -50 24 44 -49 0
37 -31 -15 -13 -41 0
17 -32 15 -47 14 0
46 4 -40 35 13 0
31 -23 -32 46 39 0
-10 27 49 -45 -22 0
-48 46 9 31 26 0
5 11 19 -31 -37 0
18 19 21 49 -48 0
-44 20 40 12 25 0
8 -22 46 17 -12 0
-22 -27 -15 -37 5 0
-38 35 -42 8 18 0
33 -17 -47 -30 -32 0
24 -22 13 -50 -20 0
-20 -48 -41 46 -50 0
45 19 -3 -17 -21 0
25 -48 -43 35 45 0
13 19 23 -25 -17 0
31 -1 -37 5 -45 0
30 -42 -44 -38 -26 0
2 -5 51 0
-2 -5 -51 0
2 5 -51 0
-2 5 51 0
-6 7 52 0
6 7 -52 0
-6 -7 -52 0
6 -7 52 0
8 9 53 0
-8 9 -53 0
8 -9 -53 0
-8 -9 53 0
-14 -15 54 0
14 -15 -54 0
-14 15 -54 0
14 15 54 0
-16 18 55 0
16 18 -55 0
-16 -18 -55 0
16 -18 55 0
21 27 56 0
-21 27 -56 0
21 -27 -56 0
-21 -27 56 0
-28 30 57 0
28 30 -57 0
-28 -30 -57 0
28 -30 57 0
-33 35 58 0
33 35 -58 0
-33 -35 -58 0
33 -35 58 0
-37 39 59 0
37 39 -59 0
-37 -39 -59 0
37 -39 59 0
-40 -41 60 0
40 -41 -60 0
-40 41 -60 0
40 41 60 0
-43 44 61 0
43 44 -61 0
-43 -44 -61 0
43 -44 61 0
51 -52 62 0
-51 -52 -62 0
51 52 -62 0
-51 52 62 0
53 -54 63 0
-53 -54 -63 0
53 54 -63 0
-53 54 63 0
55 -56 64 0
-55 -56 -64 0
55 56 -64 0
-55 56 64 0
57 -58 65 0
-57 -58 -65 0
57 58 -65 0
-57 58 65 0
59 -60 66 0
-59 -60 -66 0
59 60 -66 0
-59 60 66 0
61 -62 67 0
-61 -62 -67 0
61 62 -67 0
-61 62 67 0
63 -64 68 0
-63 -64 -68 0
63 64 -68 0
-63 64 68 0
65 -66 69 0
-65 -66 -69 0
65 66 -69 0
-65 66 69 0
-67 -68 69 0
67 -68 -69 0
-67 68 -69 0
67 68 69 0
-3 6 70 0
3 6 -70 0
-3 -6 -70 0
3 -6 70 0
7 -8 71 0
-7 -8 -71 0
7 8 -71 0
-7 8 71 0
-9 13 72 0
9 13 -72 0
-9 -13 -72 0
9 -13 72 0
14 -15 73 0
-14 -15 -73 0
14 15 -73 0
-14 15 73 0
-17 18 74 0
17 18 -74 0
-17 -18 -74 0
17 -18 74 0
19 20 75 0
-19 20 -75 0
19 -20 -75 0
-19 -20 75 0
22 26 76 0
-22 26 -76 0
22 -26 -76 0
-22 -26 76 0
29 30 77 0
-29 30 -77 0
29 -30 -77 0
-29 -30 77 0
31 -33 78 0
-31 -33 -78 0
31 33 -78 0
-31 33 78 0
39 -41 79 0
-39 -41 -79 0
39 41 -79 0
-39 41 79 0
-42 43 80 0
42 43 -80 0
-42 -43 -80 0
42 -43 80 0
-44 -45 81 0
44 -45 -81 0
-44 45 -81 0
44 45 81 0
-47 -50 82 0
47 -50 -82 0
-47 50 -82 0
47 50 82 0
70 -71 83 0
-70 -71 -83 0
70 71 -83 0
-70 71 83 0
72 -73 84 0
-72 -73 -84 0
72 73 -84 0
-72 73 84 0
74 -75 85 0
-74 -75 -85 0
74 75 -85 0
-74 75 85 0
76 -77 86 0
-76 -77 -86 0
76 77 -86 0
-76 77 86 0
78 -79 87 0
-78 -79 -87 0
78 79 -87 0
-78 79 87 0
80 -81 88 0
-80 -81 -88 0
80 81 -88 0
-80 81 88 0
82 -83 89 0
-82 -83 -89 0
82 83 -89 0
-82 83 89 0
84 -85 90 0
-84 -85 -90 0
84 85 -90 0
-84 85 90 0
86 -87 91 0
-86 -87 -91 0
86 87 -91 0
-86 87 91 0
88 -89 92 0
-88 -89 -92 0
88 89 -92 0
-88 89 92 0
90 -91 93 0
-90 -91 -93 0
90 91 -93 0
-90 91 93 0
92 93 0
-92 -93 0
-1 -3 94 0
1 -3 -94 0
-1 3 -94 0
1 3 94 0
4 7 95 0
-4 7 -95 0
4 -7 -95 0
-4 -7 95 0
-8 -10 96 0
8 -10 -96 0
-8 10 -96 0
8 10 96 0
-12 -15 97 0
12 -15 -97 0
-12 15 -97 0
12 15 97 0
16 -17 98 0
-16 -17 -98 0
16 17 -98 0
-16 17 98 0
-18 -19 99 0
18 -19 -99 0
-18 19 -99 0
18 19 99 0
20 23 100 0
-20 23 -100 0
20 -23 -100 0
-20 -23 100 0
26 -27 101 0
-26 -27 -101 0
26 27 -101 0
-26 27 101 0
-28 -29 102 0
28 -29 -102 0
-28 29 -102 0
28 29 102 0
-30 -35 103 0
30 -35 -103 0
-30 35 -103 0
30 35 103 0
39 -40 104 0
-39 -40 -104 0
39 40 -104 0
-39 40 104 0
-42 -46 105 0
42 -46 -105 0
-42 46 -105 0
42 46 105 0
93 -94 106 0
-93 -94 -106 0
93 94 -106 0
-93 94 106 0
95 -96 107 0
-95 -96 -107 0
95 96 -107 0
-95 96 107 0
97 -98 108 0
-97 -98 -108 0
97 98 -108 0
-97 98 108 0
99 -100 109 0
-99 -100 -109 0
99 100 -109 0
-99 100 109 0
101 -102 110 0
-101 -102 -110 0
101 102 -110 0
-101 102 110 0
103 -104 111 0
-103 -104 -111 0
103 104 -111 0
-103 104 111 0
105 -106 112 0
-105 -106 -112 0
105 106 -112 0
-105 106 112 0
107 -108 113 0
-107 -108 -113 0
107 108 -113 0
-107 108 113 0
109 -110 114 0
-109 -110 -114 0
109 110 -114 0
-109 110 114 0
111 -112 115 0
-111 -112 -115 0
111 112 -115 0
-111 112 115 0
113 -114 116 0
-113 -114 -116 0
113 114 -116 0
-113 114 116 0
115 116 0
-115 -116 0
-1 3 117 0
1 3 -117 0
-1 -3 -117 0
1 -3 117 0
7 8 118 0
-7 8 -118 0
7 -8 -118 0
-7 -8 118 0
-9 -13 119 0
9 -13 -119 0
-9 13 -119 0
9 13 119 0
-15 17 120 0
15 17 -120 0
-15 -17 -120 0
15 -17 120 0
20 -21 121 0
-20 -21 -121 0
20 21 -121 0
-20 21 121 0
27 -28 122 0
-27 -28 -122 0
27 28 -122 0
-27 28 122 0
29 -32 123 0
-29 -32 -123 0
29 32 -123 0
-29 32 123 0
33 -35 124 0
-33 -35 -124 0
33 35 -124 0
-33 35 124 0
-40 41 125 0
40 41 -125 0
-40 -41 -125 0
40 -41 125 0
-42 44 126 0
42 44 -126 0
-42 -44 -126 0
42 -44 126 0
-45 48 127 0
45 48 -127 0
-45 -48 -127 0
45 -48 127 0
49 -50 128 0
-49 -50 -128 0
49 50 -128 0
-49 50 128 0
117 -118 129 0
-117 -118 -129 0
117 118 -129 0
-117 118 129 0
119 -120 130 0
-119 -120 -130 0
119 120 -130 0
-119 120 130 0
121 -122 131 0
-121 -122 -131 0
121 122 -131 0
-121 122 131 0
123 -124 132 0
-123 -124 -132 0
123 124 -132 0
-123 124 132 0
125 -126 133 0
-125 -126 -133 0
125 126 -133 0
-125 126 133 0
127 -128 134 0
-127 -128 -134 0
127 128 -134 0
-127 128 134 0
129 -130 135 0
-129 -130 -135 0
129 130 -135 0
-129 130 135 0
131 -132 136 0
-131 -132 -136 0
131 132 -136 0
-131 132 136 0
133 -134 137 0
-133 -134 -137 0
133 134 -137 0
-133 134 137 0
-135 -136 137 0
135 -136 -137 0
-135 136 -137 0
135 136 137 0
1 3 138 0
-1 3 -138 0
1 -3 -138 0
-1 -3 138 0
6 -7 139 0
-6 -7 -139 0
6 7 -139 0
-6 7 139 0
-8 9 140 0
8 9 -140 0
-8 -9 -140 0
8 -9 140 0
-12 -14 141 0
12 -14 -141 0
-12 14 -141 0
12 14 141 0
-19 20 142 0
19 20 -142 0
-19 -20 -142 0
19 -20 142 0
-23 24 143 0
23 24 -143 0
-23 -24 -143 0
23 -24 143 0
-25 -28 144 0
25 -28 -144 0
-25 28 -144 0
25 28 144 0
-29 -34 145 0
29 -34 -145 0
-29 34 -145 0
29 34 145 0
-35 36 146 0
35 36 -146 0
-35 -36 -146 0
35 -36 146 0
37 -39 147 0
-37 -39 -147 0
37 39 -147 0
-37 39 147 0
41 -42 148 0
-41 -42 -148 0
41 42 -148 0
-41 42 148 0
-44 -45 149 0
44 -45 -149 0
-44 45 -149 0
44 45 149 0
46 50 150 0
-46 50 -150 0
46 -50 -150 0
-46 -50 150 0
138 -139 151 0
-138 -139 -151 0
138 139 -151 0
-138 139 151 0
140 -141 152 0
-140 -141 -152 0
140 141 -152 0
-140 141 152 0
142 -143 153 0
-142 -143 -153 0
142 143 -153 0
-142 143 153 0
144 -145 154 0
-144 -145 -154 0
144 145 -154 0
-144 145 154 0
146 -147 155 0
-146 -147 -155 0
146 147 -155 0
-146 147 155 0
148 -149 156 0
-148 -149 -156 0
148 149 -156 0
-148 149 156 0
150 -151 157 0
-150 -151 -157 0
150 151 -157 0
-150 151 157 0
152 -153 158 0
-152 -153 -158 0
152 153 -158 0
-152 153 158 0
154 -155 159 0
-154 -155 -159 0
154 155 -159 0
-154 155 159 0
156 -157 160 0
-156 -157 -160 0
156 157 -160 0
-156 157 160 0
158 -159 161 0
-158 -159 -161 0
158 159 -161 0
-158 159 161 0
160 161 0
-160 -161 0
-1 2 162 0
1 2 -162 0
-1 -2 -162 0
1 -2 162 0
-3 4 163 0
3 4 -163 0
-3 -4 -163 0
3 -4 163 0
-10 12 164 0
10 12 -164 0
-10 -12 -164 0
10 -12 164 0
-14 15 165 0
14 15 -165 0
-14 -15 -165 0
14 -15 165 0
-16 -19 166 0
16 -19 -166 0
-16 19 -166 0
16 19 166 0
23 -24 167 0
-23 -24 -167 0
23 24 -167 0
-23 24 167 0
28 31 168 0
-28 31 -168 0
28 -31 -168 0
-28 -31 168 0
-33 34 169 0
33 34 -169 0
-33 -34 -169 0
33 -34 169 0
-35 -39 170 0
35 -39 -170 0
-35 39 -170 0
35 39 170 0
41 -45 171 0
-41 -45 -171 0
41 45 -171 0
-41 45 171 0
48 -49 172 0
-48 -49 -172 0
48 49 -172 0
-48 49 172 0
162 -163 173 0
-162 -163 -173 0
162 163 -173 0
-162 163 173 0
164 -165 174 0
-164 -165 -174 0
164 165 -174 0
-164 165 174 0
166 -167 175 0
-166 -167 -175 0
166 167 -175 0
-166 167 175 0
168 -169 176 0
-168 -169 -176 0
168 169 -176 0
-168 169 176 0
170 -171 177 0
-170 -171 -177 0
170 171 -177 0
-170 171 177 0
172 -173 178 0
-172 -173 -178 0
172 173 -178 0
-172 173 178 0
174 -175 179 0
-174 -175 -179 0
174 175 -179 0
-174 175 179 0
176 -177 180 0
-176 -177 -180 0
176 177 -180 0
-176 177 180 0
-178 -179 180 0
178 -179 -180 0
-178 179 -180 0
178 179 180 0
-2 -7 181 0
2 -7 -181 0
-2 7 -181 0
2 7 181 0
8 12 182 0
-8 12 -182 0
8 -12 -182 0
-8 -12 182 0
13 -22 183 0
-13 -22 -183 0
13 22 -183 0
-13 22 183 0
-25 -29 184 0
25 -29 -184 0
-25 29 -184 0
25 29 184 0
-30 -32 185 0
30 -32 -185 0
-30 32 -185 0
30 32 185 0
-33 -34 186 0
33 -34 -186 0
-33 34 -186 0
33 34 186 0
35 37 187 0
-35 37 -187 0
35 -37 -187 0
-35 -37 187 0
-40 -47 188 0
40 -47 -188 0
-40 47 -188 0
40 47 188 0
180 -181 189 0
-180 -181 -189 0
180 181 -189 0
-180 181 189 0
182 -183 190 0
-182 -183 -190 0
182 183 -190 0
-182 183 190 0
184 -185 191 0
-184 -185 -191 0
184 185 -191 0
-184 185 191 0
186 -187 192 0
-186 -187 -192 0
186 187 -192 0
-186 187 192 0
188 -189 193 0
-188 -189 -193 0
188 189 -193 0
-188 189 193 0
190 -191 194 0
-190 -191 -194 0
190 191 -194 0
-190 191 194 0
-192 -193 194 0
192 -193 -194 0
-192 193 -194 0
192 193 194 0
-3 4 195 0
3 4 -195 0
-3 -4 -195 0
3 -4 195 0
6 13 196 0
-6 13 -196 0
6 -13 -196 0
-6 -13 196 0
-15 -17 197 0
15 -17 -197 0
-15 17 -197 0
15 17 197 0
19 20 198 0
-19 20 -198 0
19 -20 -198 0
-19 -20 198 0
-21 -22 199 0
21 -22 -199 0
-21 22 -199 0
21 22 199 0
-26 27 200 0
26 27 -200 0
-26 -27 -200 0
26 -27 200 0
29 31 201 0
-29 31 -201 0
29 -31 -201 0
-29 -31 201 0
-32 -33 202 0
32 -33 -202 0
-32 33 -202 0
32 33 202 0
34 36 203 0
-34 36 -203 0
34 -36 -203 0
-34 -36 203 0
-37 39 204 0
37 39 -204 0
-37 -39 -204 0
37 -39 204 0
-40 -41 205 0
40 -41 -205 0
-40 41 -205 0
40 41 205 0
-42 43 206 0
42 43 -206 0
-42 -43 -206 0
42 -43 206 0
46 -49 207 0
-46 -49 -207 0
46 49 -207 0
-46 49 207 0
195 -196 208 0
-195 -196 -208 0
195 196 -208 0
-195 196 208 0
197 -198 209 0
-197 -198 -209 0
197 198 -209 0
-197 198 209 0
199 -200 210 0
-199 -200 -210 0
199 200 -210 0
-199 200 210 0
201 -202 211 0
-201 -202 -211 0
201 202 -211 0
-201 202 211 0
203 -204 212 0
-203 -204 -212 0
203 204 -212 0
-203 204 212 0
205 -206 213 0
-205 -206 -213 0
205 206 -213 0
-205 206 213 0
207 -208 214 0
-207 -208 -214 0
207 208 -214 0
-207 208 214 0
209 -210 215 0
-209 -210 -215 0
209 210 -215 0
-209 210 215 0
211 -212 216 0
-211 -212 -216 0
211 212 -216 0
-211 212 216 0
213 -214 217 0
-213 -214 -217 0
213 214 -217 0
-213 214 217 0
215 -216 218 0
-215 -216 -218 0
215 216 -218 0
-215 216 218 0
217 218 0
-217 -218 0
-1 -2 219 0
1 -2 -219 0
-1 2 -219 0
1 2 219 0
-3 -6 220 0
3 -6 -220 0
-3 6 -220 0
3 6 220 0
-9 -10 221 0
9 -10 -221 0
-9 10 -221 0
9 10 221 0
-11 -12 222 0
11 -12 -222 0
-11 12 -222 0
11 12 222 0
13 -18 223 0
-13 -18 -223 0
13 18 -223 0
-13 18 223 0
-20 23 224 0
20 23 -224 0
-20 -23 -224 0
20 -23 224 0
25 26 225 0
-25 26 -225 0
25 -26 -225 0
-25 -26 225 0
-27 28 226 0
27 28 -226 0
-27 -28 -226 0
27 -28 226 0
29 31 227 0
-29 31 -227 0
29 -31 -227 0
-29 -31 227 0
34 37 228 0
-34 37 -228 0
34 -37 -228 0
-34 -37 228 0
38 39 229 0
-38 39 -229 0
38 -39 -229 0
-38 -39 229 0
-41 42 230 0
41 42 -230 0
-41 -42 -230 0
41 -42 230 0
-43 -47 231 0
43 -47 -231 0
-43 47 -231 0
43 47 231 0
-48 -49 232 0
48 -49 -232 0
-48 49 -232 0
48 49 232 0
219 -220 233 0
-219 -220 -233 0
219 220 -233 0
-219 220 233 0
221 -222 234 0
-221 -222 -234 0
221 222 -234 0
-221 222 234 0
223 -224 235 0
-223 -224 -235 0
223 224 -235 0
-223 224 235 0
225 -226 236 0
-225 -226 -236 0
225 226 -236 0
-225 226 236 0
227 -228 237 0
-227 -228 -237 0
227 228 -237 0
-227 228 237 0
229 -230 238 0
-229 -230 -238 0
229 230 -238 0
-229 230 238 0
231 -232 239 0
-231 -232 -239 0
231 232 -239 0
-231 232 239 0
233 -234 240 0
-233 -234 -240 0
233 234 -240 0
-233 234 240 0
235 -236 241 0
-235 -236 -241 0
235 236 -241 0
-235 236 241 0
237 -238 242 0
-237 -238 -242 0
237 238 -242 0
-237 238 242 0
239 -240 243 0
-239 -240 -243 0
239 240 -243 0
-239 240 243 0
241 -242 244 0
-241 -242 -244 0
241 242 -244 0
-241 242 244 0
243 244 0
-243 -244 0
1 -2 245 0
-1 -2 -245 0
1 2 -245 0
-1 2 245 0
-4 -7 246 0
4 -7 -246 0
-4 7 -246 0
4 7 246 0
-8 -9 247 0
8 -9 -247 0
-8 9 -247 0
8 9 247 0
-16 17 248 0
16 17 -248 0
-16 -17 -248 0
16 -17 248 0
-22 23 249 0
22 23 -249 0
-22 -23 -249 0
22 -23 249 0
-25 26 250 0
25 26 -250 0
-25 -26 -250 0
25 -26 250 0
27 28 251 0
-27 28 -251 0
27 -28 -251 0
-27 -28 251 0
29 30 252 0
-29 30 -252 0
29 -30 -252 0
-29 -30 252 0
-34 39 253 0
34 39 -253 0
-34 -39 -253 0
34 -39 253 0
40 41 254 0
-40 41 -254 0
40 -41 -254 0
-40 -41 254 0
42 44 255 0
-42 44 -255 0
42 -44 -255 0
-42 -44 255 0
-47 -48 256 0
47 -48 -256 0
-47 48 -256 0
47 48 256 0
244 -245 257 0
-244 -245 -257 0
244 245 -257 0
-244 245 257 0
246 -247 258 0
-246 -247 -258 0
246 247 -258 0
-246 247 258 0
248 -249 259 0
-248 -249 -259 0
248 249 -259 0
-248 249 259 0
250 -251 260 0
-250 -251 -260 0
250 251 -260 0
-250 251 260 0
252 -253 261 0
-252 -253 -261 0
252 253 -261 0
-252 253 261 0
254 -255 262 0
-254 -255 -262 0
254 255 -262 0
-254 255 262 0
256 -257 263 0
-256 -257 -263 0
256 257 -263 0
-256 257 263 0
258 -259 264 0
-258 -259 -264 0
258 259 -264 0
-258 259 264 0
260 -261 265 0
-260 -261 -265 0
260 261 -265 0
-260 261 265 0
262 -263 266 0
-262 -263 -266 0
262 263 -266 0
-262 263 266 0
264 -265 267 0
-264 -265 -267 0
264 265 -267 0
-264 265 267 0
266 267 0
-266 -267 0
1 -3 268 0
-1 -3 -268 0
1 3 -268 0
-1 3 268 0
4 8 269 0
-4 8 -269 0
4 -8 -269 0
-4 -8 269 0
9 -12 270 0
-9 -12 -270 0
9 12 -270 0
-9 12 270 0
-13 15 271 0
13 15 -271 0
-13 -15 -271 0
13 -15 271 0
16 -17 272 0
-16 -17 -272 0
16 17 -272 0
-16 17 272 0
-21 -22 273 0
21 -22 -273 0
-21 22 -273 0
21 22 273 0
-24 -25 274 0
24 -25 -274 0
-24 25 -274 0
24 25 274 0
26 -30 275 0
-26 -30 -275 0
26 30 -275 0
-26 30 275 0
35 -39 276 0
-35 -39 -276 0
35 39 -276 0
-35 39 276 0
-40 41 277 0
40 41 -277 0
-40 -41 -277 0
40 -41 277 0
-42 43 278 0
42 43 -278 0
-42 -43 -278 0
42 -43 278 0
-45 -46 279 0
45 -46 -279 0
-45 46 -279 0
45 46 279 0
48 -50 280 0
-48 -50 -280 0
48 50 -280 0
-48 50 280 0
268 -269 281 0
-268 -269 -281 0
268 269 -281 0
-268 269 281 0
270 -271 282 0
-270 -271 -282 0
270 271 -282 0
-270 271 282 0
272 -273 283 0
-272 -273 -283 0
272 273 -283 0
-272 273 283 0
274 -275 284 0
-274 -275 -284 0
274 275 -284 0
-274 275 284 0
276 -277 285 0
-276 -277 -285 0
276 277 -285 0
-276 277 285 0
278 -279 286 0
-278 -279 -286 0
278 279 -286 0
-278 279 286 0
280 -281 287 0
-280 -281 -287 0
280 281 -287 0
-280 281 287 0
282 -283 288 0
-282 -283 -288 0
282 283 -288 0
-282 283 288 0
284 -285 289 0
-284 -285 -289 0
284 285 -289 0
-284 285 289 0
286 -287 290 0
-286 -287 -290 0
286 287 -290 0
-286 287 290 0
288 -289 291 0
-288 -289 -291 0
288 289 -291 0
-288 289 291 0
290 291 0
-290 -291 0
-2 -3 292 0
2 -3 -292 0
-2 3 -292 0
2 3 292 0
-4 -5 293 0
4 -5 -293 0
-4 5 -293 0
4 5 293 0
-6 9 294 0
6 9 -294 0
-6 -9 -294 0
6 -9 294 0
-12 13 295 0
12 13 -295 0
-12 -13 -295 0
12 -13 295 0
14 15 296 0
-14 15 -296 0
14 -15 -296 0
-14 -15 296 0
-16 17 297 0
16 17 -297 0
-16 -17 -297 0
16 -17 297 0
-18 19 298 0
18 19 -298 0
-18 -19 -298 0
18 -19 298 0
-20 -23 299 0
20 -23 -299 0
-20 23 -299 0
20 23 299 0
28 -30 300 0
-28 -30 -300 0
28 30 -300 0
-28 30 300 0
-31 33 301 0
31 33 -301 0
-31 -33 -301 0
31 -33 301 0
34 35 302 0
-34 35 -302 0
34 -35 -302 0
-34 -35 302 0
-38 -40 303 0
38 -40 -303 0
-38 40 -303 0
38 40 303 0
42 -44 304 0
-42 -44 -304 0
42 44 -304 0
-42 44 304 0
-47 -49 305 0
47 -49 -305 0
-47 49 -305 0
47 49 305 0
292 -293 306 0
-292 -293 -306 0
292 293 -306 0
-292 293 306 0
294 -295 307 0
-294 -295 -307 0
294 295 -307 0
-294 295 307 0
296 -297 308 0
-296 -297 -308 0
296 297 -308 0
-296 297 308 0
298 -299 309 0
-298 -299 -309 0
298 299 -309 0
-298 299 309 0
300 -301 310 0
-300 -301 -310 0
300 301 -310 0
-300 301 310 0
302 -303 311 0
-302 -303 -311 0
302 303 -311 0
-302 303 311 0
304 -305 312 0
-304 -305 -312 0
304 305 -312 0
-304 305 312 0
306 -307 313 0
-306 -307 -313 0
306 307 -313 0
-306 307 313 0
308 -309 314 0
-308 -309 -314 0
308 309 -314 0
-308 309 314 0
310 -311 315 0
-310 -311 -315 0
310 311 -315 0
-310 311 315 0
312 -313 316 0
-312 -313 -316 0
312 313 -316 0
-312 313 316 0
314 -315 317 0
-314 -315 -317 0
314 315 -317 0
-314 315 317 0
316 317 0
-316 -317 0
-4 7 318 0
4 7 -318 0
-4 -7 -318 0
4 -7 318 0
-11 15 319 0
11 15 -319 0
-11 -15 -319 0
11 -15 319 0
-17 18 320 0
17 18 -320 0
-17 -18 -320 0
17 -18 320 0
19 -21 321 0
-19 -21 -321 0
19 21 -321 0
-19 21 321 0
-23 24 322 0
23 24 -322 0
-23 -24 -322 0
23 -24 322 0
-25 26 323 0
25 26 -323 0
-25 -26 -323 0
25 -26 323 0
-29 30 324 0
29 30 -324 0
-29 -30 -324 0
29 -30 324 0
-31 -33 325 0
31 -33 -325 0
-31 33 -325 0
31 33 325 0
34 35 326 0
-34 35 -326 0
34 -35 -326 0
-34 -35 326 0
37 -38 327 0
-37 -38 -327 0
37 38 -327 0
-37 38 327 0
-39 40 328 0
39 40 -328 0
-39 -40 -328 0
39 -40 328 0
41 -44 329 0
-41 -44 -329 0
41 44 -329 0
-41 44 329 0
45 49 330 0
-45 49 -330 0
45 -49 -330 0
-45 -49 330 0
317 -318 331 0
-317 -318 -331 0
317 318 -331 0
-317 318 331 0
319 -320 332 0
-319 -320 -332 0
319 320 -332 0
-319 320 332 0
321 -322 333 0
-321 -322 -333 0
321 322 -333 0
-321 322 333 0
323 -324 334 0
-323 -324 -334 0
323 324 -334 0
-323 324 334 0
325 -326 335 0
-325 -326 -335 0
325 326 -335 0
-325 326 335 0
327 -328 336 0
-327 -328 -336 0
327 328 -336 0
-327 328 336 0
329 -330 337 0
-329 -330 -337 0
329 330 -337 0
-329 330 337 0
331 -332 338 0
-331 -332 -338 0
331 332 -338 0
-331 332 338 0
333 -334 339 0
-333 -334 -339 0
333 334 -339 0
-333 334 339 0
335 -336 340 0
-335 -336 -340 0
335 336 -340 0
-335 336 340 0
337 -338 341 0
-337 -338 -341 0
337 338 -341 0
-337 338 341 0
339 -340 342 0
-339 -340 -342 0
339 340 -342 0
-339 340 342 0
341 342 0
-341 -342 0
1 -2 343 0
-1 -2 -343 0
1 2 -343 0
-1 2 343 0
-3 -7 344 0
3 -7 -344 0
-3 7 -344 0
3 7 344 0
10 12 345 0
-10 12 -345 0
10 -12 -345 0
-10 -12 345 0
13 -14 346 0
-13 -14 -346 0
13 14 -346 0
-13 14 346 0
-16 -17 347 0
16 -17 -347 0
-16 17 -347 0
16 17 347 0
-21 -23 348 0
21 -23 -348 0
-21 23 -348 0
21 23 348 0
-26 -28 349 0
26 -28 -349 0
-26 28 -349 0
26 28 349 0
-30 31 350 0
30 31 -350 0
-30 -31 -350 0
30 -31 350 0
35 39 351 0
-35 39 -351 0
35 -39 -351 0
-35 -39 351 0
-40 -42 352 0
40 -42 -352 0
-40 42 -352 0
40 42 352 0
44 47 353 0
-44 47 -353 0
44 -47 -353 0
-44 -47 353 0
342 -343 354 0
-342 -343 -354 0
342 343 -354 0
-342 343 354 0
344 -345 355 0
-344 -345 -355 0
344 345 -355 0
-344 345 355 0
346 -347 356 0
-346 -347 -356 0
346 347 -356 0
-346 347 356 0
348 -349 357 0
-348 -349 -357 0
348 349 -357 0
-348 349 357 0
350 -351 358 0
-350 -351 -358 0
350 351 -358 0
-350 351 358 0
352 -353 359 0
-352 -353 -359 0
352 353 -359 0
-352 353 359 0
354 -355 360 0
-354 -355 -360 0
354 355 -360 0
-354 355 360 0
356 -357 361 0
-356 -357 -361 0
356 357 -361 0
-356 357 361 0
358 -359 362 0
-358 -359 -362 0
358 359 -362 0
-358 359 362 0
-360 -361 362 0
360 -361 -362 0
-360 361 -362 0
360 361 362 0
3 4 363 0
-3 4 -363 0
3 -4 -363 0
-3 -4 363 0
5 -10 364 0
-5 -10 -364 0
5 10 -364 0
-5 10 364 0
-11 -12 365 0
11 -12 -365 0
-11 12 -365 0
11 12 365 0
13 -17 366 0
-13 -17 -366 0
13 17 -366 0
-13 17 366 0
-18 -19 367 0
18 -19 -367 0
-18 19 -367 0
18 19 367 0
-20 -21 368 0
20 -21 -368 0
-20 21 -368 0
20 21 368 0
24 25 369 0
-24 25 -369 0
24 -25 -369 0
-24 -25 369 0
28 -32 370 0
-28 -32 -370 0
28 32 -370 0
-28 32 370 0
-35 -36 371 0
35 -36 -371 0
-35 36 -371 0
35 36 371 0
38 41 372 0
-38 41 -372 0
38 -41 -372 0
-38 -41 372 0
-42 -44 373 0
42 -44 -373 0
-42 44 -373 0
42 44 373 0
-45 47 374 0
45 47 -374 0
-45 -47 -374 0
45 -47 374 0
363 -364 375 0
-363 -364 -375 0
363 364 -375 0
-363 364 375 0
365 -366 376 0
-365 -366 -376 0
365 366 -376 0
-365 366 376 0
367 -368 377 0
-367 -368 -377 0
367 368 -377 0
-367 368 377 0
369 -370 378 0
-369 -370 -378 0
369 370 -378 0
-369 370 378 0
371 -372 379 0
-371 -372 -379 0
371 372 -379 0
-371 372 379 0
373 -374 380 0
-373 -374 -380 0
373 374 -380 0
-373 374 380 0
375 -376 381 0
-375 -376 -381 0
375 376 -381 0
-375 376 381 0
377 -378 382 0
-377 -378 -382 0
377 378 -382 0
-377 378 382 0
379 -380 383 0
-379 -380 -383 0
379 380 -383 0
-379 380 383 0
-381 -382 383 0
381 -382 -383 0
-381 382 -383 0
381 382 383 0
2 3 384 0
-2 3 -384 0
2 -3 -384 0
-2 -3 384 0
-4 5 385 0
4 5 -385 0
-4 -5 -385 0
4 -5 385 0
8 11 386 0
-8 11 -386 0
8 -11 -386 0
-8 -11 386 0
-13 14 387 0
13 14 -387 0
-13 -14 -387 0
13 -14 387 0
15 -16 388 0
-15 -16 -388 0
15 16 -388 0
-15 16 388 0
-19 -20 389 0
19 -20 -389 0
-19 20 -389 0
19 20 389 0
21 25 390 0
-21 25 -390 0
21 -25 -390 0
-21 -25 390 0
-28 31 391 0
28 31 -391 0
-28 -31 -391 0
28 -31 391 0
32 38 392 0
-32 38 -392 0
32 -38 -392 0
-32 -38 392 0
42 43 393 0
-42 43 -393 0
42 -43 -393 0
-42 -43 393 0
-45 -46 394 0
45 -46 -394 0
-45 46 -394 0
45 46 394 0
-49 50 395 0
49 50 -395 0
-49 -50 -395 0
49 -50 395 0
384 -385 396 0
-384 -385 -396 0
384 385 -396 0
-384 385 396 0
386 -387 397 0
-386 -387 -397 0
386 387 -397 0
-386 387 397 0
388 -389 398 0
-388 -389 -398 0
388 389 -398 0
-388 389 398 0
390 -391 399 0
-390 -391 -399 0
390 391 -399 0
-390 391 399 0
392 -393 400 0
-392 -393 -400 0
392 393 -400 0
-392 393 400 0
394 -395 401 0
-394 -395 -401 0
394 395 -401 0
-394 395 401 0
396 -397 402 0
-396 -397 -402 0
396 397 -402 0
-396 397 402 0
398 -399 403 0
-398 -399 -403 0
398 399 -403 0
-398 399 403 0
400 -401 404 0
-400 -401 -404 0
400 401 -404 0
-400 401 404 0
-402 -403 404 0
402 -403 -404 0
-402 403 -404 0
402 403 404 0
1 -2 405 0
-1 -2 -405 0
1 2 -405 0
-1 2 405 0
-4 -8 406 0
4 -8 -406 0
-4 8 -406 0
4 8 406 0
-9 -10 407 0
9 -10 -407 0
-9 10 -407 0
9 10 407 0
-13 14 408 0
13 14 -408 0
-13 -14 -408 0
13 -14 408 0
-17 -19 409 0
17 -19 -409 0
-17 19 -409 0
17 19 409 0
22 23 410 0
-22 23 -410 0
22 -23 -410 0
-22 -23 410 0
-25 29 411 0
25 29 -411 0
-25 -29 -411 0
25 -29 411 0
-31 -32 412 0
31 -32 -412 0
-31 32 -412 0
31 32 412 0
-35 -36 413 0
35 -36 -413 0
-35 36 -413 0
35 36 413 0
38 39 414 0
-38 39 -414 0
38 -39 -414 0
-38 -39 414 0
41 -44 415 0
-41 -44 -415 0
41 44 -415 0
-41 44 415 0
48 -49 416 0
-48 -49 -416 0
48 49 -416 0
-48 49 416 0
405 -406 417 0
-405 -406 -417 0
405 406 -417 0
-405 406 417 0
407 -408 418 0
-407 -408 -418 0
407 408 -418 0
-407 408 418 0
409 -410 419 0
-409 -410 -419 0
409 410 -419 0
-409 410 419 0
411 -412 420 0
-411 -412 -420 0
411 412 -420 0
-411 412 420 0
413 -414 421 0
-413 -414 -421 0
413 414 -421 0
-413 414 421 0
415 -416 422 0
-415 -416 -422 0
415 416 -422 0
-415 416 422 0
417 -418 423 0
-417 -418 -423 0
417 418 -423 0
-417 418 423 0
419 -420 424 0
-419 -420 -424 0
419 420 -424 0
-419 420 424 0
421 -422 425 0
-421 -422 -425 0
421 422 -425 0
-421 422 425 0
-423 -424 425 0
423 -424 -425 0
-423 424 -425 0
423 424 425 0
3 -7 426 0
-3 -7 -426 0
3 7 -426 0
-3 7 426 0
-12 13 427 0
12 13 -427 0
-12 -13 -427 0
12 -13 427 0
19 -23 428 0
-19 -23 -428 0
19 23 -428 0
-19 23 428 0
-24 30 429 0
24 30 -429 0
-24 -30 -429 0
24 -30 429 0
32 34 430 0
-32 34 -430 0
32 -34 -430 0
-32 -34 430 0
-35 37 431 0
35 37 -431 0
-35 -37 -431 0
35 -37 431 0
41 -42 432 0
-41 -42 -432 0
41 42 -432 0
-41 42 432 0
-46 47 433 0
46 47 -433 0
-46 -47 -433 0
46 -47 433 0
425 -426 434 0
-425 -426 -434 0
425 426 -434 0
-425 426 434 0
427 -428 435 0
-427 -428 -435 0
427 428 -435 0
-427 428 435 0
429 -430 436 0
-429 -430 -436 0
429 430 -436 0
-429 430 436 0
431 -432 437 0
-431 -432 -437 0
431 432 -437 0
-431 432 437 0
433 -434 438 0
-433 -434 -438 0
433 434 -438 0
-433 434 438 0
435 -436 439 0
-435 -436 -439 0
435 436 -439 0
-435 436 439 0
-437 -438 439 0
437 -438 -439 0
-437 438 -439 0
437 438 439 0
-2 -3 440 0
2 -3 -440 0
-2 3 -440 0
2 3 440 0
-6 7 441 0
6 7 -441 0
-6 -7 -441 0
6 -7 441 0
-11 14 442 0
11 14 -442 0
-11 -14 -442 0
11 -14 442 0
-15 -16 443 0
15 -16 -443 0
-15 16 -443 0
15 16 443 0
17 -21 444 0
-17 -21 -444 0
17 21 -444 0
-17 21 444 0
22 23 445 0
-22 23 -445 0
22 -23 -445 0
-22 -23 445 0
-24 -25 446 0
24 -25 -446 0
-24 25 -446 0
24 25 446 0
28 -29 447 0
-28 -29 -447 0
28 29 -447 0
-28 29 447 0
30 -31 448 0
-30 -31 -448 0
30 31 -448 0
-30 31 448 0
32 33 449 0
-32 33 -449 0
32 -33 -449 0
-32 -33 449 0
39 -40 450 0
-39 -40 -450 0
39 40 -450 0
-39 40 450 0
-41 -43 451 0
41 -43 -451 0
-41 43 -451 0
41 43 451 0
-46 50 452 0
46 50 -452 0
-46 -50 -452 0
46 -50 452 0
440 -441 453 0
-440 -441 -453 0
440 441 -453 0
-440 441 453 0
442 -443 454 0
-442 -443 -454 0
442 443 -454 0
-442 443 454 0
444 -445 455 0
-444 -445 -455 0
444 445 -455 0
-444 445 455 0
446 -447 456 0
-446 -447 -456 0
446 447 -456 0
-446 447 456 0
448 -449 457 0
-448 -449 -457 0
448 449 -457 0
-448 449 457 0
450 -451 458 0
-450 -451 -458 0
450 451 -458 0
-450 451 458 0
452 -453 459 0
-452 -453 -459 0
452 453 -459 0
-452 453 459 0
454 -455 460 0
-454 -455 -460 0
454 455 -460 0
-454 455 460 0
456 -457 461 0
-456 -457 -461 0
456 457 -461 0
-456 457 461 0
458 -459 462 0
-458 -459 -462 0
458 459 -462 0
-458 459 462 0
460 -461 463 0
-460 -461 -463 0
460 461 -463 0
-460 461 463 0
462 463 0
-462 -463 0
-3 -5 464 0
3 -5 -464 0
-3 5 -464 0
3 5 464 0
6 -7 465 0
-6 -7 -465 0
6 7 -465 0
-6 7 465 0
10 -18 466 0
-10 -18 -466 0
10 18 -466 0
-10 18 466 0
-19 -21 467 0
19 -21 -467 0
-19 21 -467 0
19 21 467 0
-30 -31 468 0
30 -31 -468 0
-30 31 -468 0
30 31 468 0
-34 -35 469 0
34 -35 -469 0
-34 35 -469 0
34 35 469 0
38 -40 470 0
-38 -40 -470 0
38 40 -470 0
-38 40 470 0
-41 42 471 0
41 42 -471 0
-41 -42 -471 0
41 -42 471 0
43 -44 472 0
-43 -44 -472 0
43 44 -472 0
-43 44 472 0
463 -464 473 0
-463 -464 -473 0
463 464 -473 0
-463 464 473 0
465 -466 474 0
-465 -466 -474 0
465 466 -474 0
-465 466 474 0
467 -468 475 0
-467 -468 -475 0
467 468 -475 0
-467 468 475 0
469 -470 476 0
-469 -470 -476 0
469 470 -476 0
-469 470 476 0
471 -472 477 0
-471 -472 -477 0
471 472 -477 0
-471 472 477 0
473 -474 478 0
-473 -474 -478 0
473 474 -478 0
-473 474 478 0
475 -476 479 0
-475 -476 -479 0
475 476 -479 0
-475 476 479 0
-477 -478 479 0
477 -478 -479 0
-477 478 -479 0
477 478 479 0
